NAME: tsp15_23
COMMENT: 15-tsp problem (Padberg/Rinaldi)
TYPE: TSP
DIMENSION: 15
EDGE_WEIGHT_TYPE : EUC_2D
NODE_COORD_SECTION
1 33 18
2 7 35
3 11 20
4 40 22
5 25 11
6 1 18
7 0 19
8 3 6
9 13 29
10 15 22
11 27 34
12 15 8
13 4 37
14 34 39
15 20 26
